     60      3     12    437     20
     30     42     30
      4     11     42      1      9     25     43     48     16      3     14     56     27      6     23     54     53     18      8      2     19     43     44     42     32     19     53     33     30     17     39      5     25     41     15     38      3      6     26     11     27      7      0      6     48     17     55      5     34     12      4     21     31     58     32     33     22     14     49     59      3      0      2     12     57      0     42     33     34      9     40     58     52     56     19     55     33     41      2      4     10     41     14     32     17     45     39     54     11     49     42     35     27     51     40     29     42     22     50      6     28     23     16      2     50     52     12     58     44      8     35     55      1     30     14     31     58     24     53     48     34     26      2     37     39     28     13     34     52     46     30     11      3      2     14     48     35     50      1      9     10     59     12     25     19      7     28     49     30     48      4      3     45     19     23     25     34     37     16     20     54     39     37     27     40      0     56     49     20     54     41     15     51     23     12     38     31     57     17     52     55     38     59     16     10     33      0      2     24     38      5     17     25     19     15      6      3     51     56     57     38     30     39     59     14     51     16     46     36     25     39     29     46     47     51      8     45     29     47     12     30     24     25     21     54      2     30     42     26      7     45     39     53     16     24     10     34     59     23      1     50      0     10     41     43     12      8     14     25     35     29     45     53     42     38     31     44     55     19     57     58      2     45     55     14     30     38     14      0     16     20     56     22      6     47      9      3     15     28     20     21     25     14     28     20     49     24     32     52      9     49     18     55      1     15     56     44     32     54     38     51     34     55     19     29     57     49     58     26     32      2     15     24     48      4     23     50      5     58      2     12     51     27      2     38     16     21     24     52     46     43     16     29     17      5     59     40      2     21     26     11     57      5     41     55     44     12     22     32     44      5     35     39     18     53     21      0     47     59     55     54     13     50     19     22     32     25     54     56     15     32     33     36     47     55     43     11      4     51     17     45     24     38     44      4     22     37     23      8     58      5     27      9     56     58     12     19     46     45      9     13     53     44     46     20     51      7     30     31     57      4     42     36     28     10     30     46     56     33     21     40     42     41     37      4     31     13     25     51     43      0      9     21     15      2     55     58     10     16     42      3      8     10     51     19     23     30     38     12     43     51     47     52     30     35     20      3      1     29     48     49     33     48     34     26      8     10     39      7      9      9     58     18      4     26     56     17     28     10     41     45      1     29     35     20     56     57      0     31     22     17     41     56     59     13     39     24     55     57     12     37     42     20     44     54     58     16     18      1      5     36     48     52     22     32      0      4     21     17      5
    -28    124     31    134     72    108    108     45    -12    164     59    103     11    149     14     49     77    124    113     62    -39    109     64     32    129     -6    126    161     46     83    -19    138    150      7    154     56     52     44    120    129     52     -6    101     -7      7     40    -21    -28    148    -31     66     69     18     65     17     82     25     -2    -19     34    -11    -16     10     66     -5     31    -15     15     49    -21     47     23     95     27     -6     68     66     91     73     27
     12     13     10     15	    205     77     12     12      5      0      0      0      0      0      0      0      0      0      0    159      0     68      0      0      0      0      0      0      0      0      0      0    -30      0     48      0      0      0    154      0      0    -16      0      0      0      0      0      0      0    -20      0      0      0      0      0      0    142      0      0      0     43      0      0      0      0      0     44    138      0
      8     15     10     10	    463     78     11     12      8      0      0      0      0      0      0      0      0      0      0      0      0      0      0      0    106      0      0      0    129      0      0      0      0      0      0      0      0      0      0      0      0      0      0      0      0      0      0      0      0      0      0      0      0      0      0      0      0     60      0    192      0    -38      0     82      0      0      2      0      0
     11     11     10     13	    437    260     11     12      6      0      0      0      0      0      0      0      0     85      0      0      0      0      0      0      0      0      0      0     63      0      0     78      0     59      0      0      0      0      0    154     37      0      0    240      0      0      0    160     57     37    200      0    147      0    101      0      0      0     17      0      0      0      0      0    341      0      0      0     67
      6     13     11     12	    326     95      7     12      6      0      0      0      0      0      0      0      0      0      0      0      0      0      0      0      0      0     -8      0      0      0     52     -7      0      0     64      0    137      0      0      0      0      0      0      0      6      0      0      0      0      0    214      0      0      0      0     62      0      0      0    239      0      0      0      0      0      0      0      0     23
      9     15     12     12	    450    119     10     11      6      0      0      0      0      0      0      0      0     78      0      0      0     -8    195      0      0      0      0     -1      0      0      0     78      0      0      0      0      0      0      0      0    -26      0    138      0      0      0     79      0      0      0    -11      0      0      0      0      0     76      0     21      0      0      0    113     46      0      0      0      0      0
      7     10     13     11	    385    144      9     11      1      0      0      0      0      0      0      0      0      0      0      0      0      0      0     15      0      0      0     17    148      0      0      0    121    126      0    153      0      0      0     39      0      0      0    -48      0      0      0      0    -12      0      0    211      0      0      0      0      0      0      0      0      0      0      0      0      0      0      0      0      0
      7     13     11     15	    119     70      7     11      5      0      0      0      0      0      0      0      0     78     73      0      0     69     25      0      0      0     16      0      0     12      0      0      0      0      0      0      0      0      0      0      0      0      0     79      0      0      0      0      0      0      0      0     54     93     62      0      0      0      0      0      0      0      0      0      0     26      0     72     53
      7     11     15     15	    145     95      9      9      9      0      0      0      0      0      0      0      0      0     38      0      0    -18      5      0      0      0      0      0      0      0     55      0      0      0      0      0      0      0      0      0      0      0      0      0      0      0      0      0      0      0      0      0      0      0      0      0      0      0      0      0      0      0      0      0      0      0      0      0     73
     12     14     15     11	    124     60     12     12      7      0      0     85      0     78      0     78      0      0      0      0     41      0     66      0      0     59      0      0     82      0      0      0      0      0      0     78     65      0      0      0      0     10      0    -21      0      0      0     51     18      0      0      0      0      0      0      0      0      0      0    -21      0      0      0      0      0      0      0      0      0
      6     10     11     15	    111     54      7      8      2      0      0      0      0      0      0     73     38      0      0      0      0      0      0      0      0      0      0     21     45      0      0      0      0     42      0      0     44      0      0      0      0      0      0     35      0      0     41      0     39      0      0      0     35     -1      0      0      0      0      0     18      0      0     18      0      0      0      0      6      0
     10     11     14     11	    202     80     11     11     10    159      0      0      0      0      0      0      0      0      0      0      0     73      0      0      0      0      0      0      0      0     47      0    -14      0      0      0      0      0      0      0     28      0      0      0      0      0     14      0    -20      0      0      0      0      0      0    120      0      0      0      0      0      0     76    106      0      0      0      0      0
      7     11     12     12	    389    197     12     12      7      0      0      0      0      0      0      0      0     41      0      0      0      0      0      0      0      0      0      0      0      0      0      0      0      0    -45      0      0    -52      0      0      0      0      0      0      0      0      0      0      0      0      0      0      0     84      0      0      0    104      0      0      0     81      0      0      0      0      0      0      0
     10     13     14     15	    200     82     12     12     10     68      0      0      0     -8      0     69    -18      0      0     73      0      0      0    -26    154      0      0      0      0      0      0      0     65      0     44      0      0     66      0      0      0      0      0      0      0      0      0      0      0      0      0      0      0      0      0      0      0      0     26     31      0      0      0     79      0      0    130      0      0
      6     15     14     14	    326    154     11     12      3      0      0      0      0    195      0     25      5     66      0      0      0      0      0      0    168      0      0      0      0      0     57      0      0      0      0      0      0      0    124      0     59      0      0      0      0      0      0      0      0    231      0      0      0    163      0      0      0      0    114      0      0      0      0      0      0      4      0    181      0
      7     13     13     10	    338     68     10     11      8      0      0      0      0      0     15      0      0      0      0      0      0    -26      0      0    -20      0      0      0      0      0      0    105      0      0      0    169      0    140    123      0      0      0      0      0      0      0      0    -25     21      0      0      0      0      0      0    -13      0      0      0      0      0      0      1      0      0      0      0      0      0
      8     11     10     10	    238    143     12     12      5      0    106      0      0      0      0      0      0      0      0      0      0    154    168    -20      0    -17      0      0      0      0      0      0    137    -17      0    -22      0      0      0      0     18      0      0      0      0      0      0      0      0      0     53      0    158      0      0      0      0      0    -16      0      0    173      0     -4      0      0      0      0      0
     11     11     12     14	    363    232     12     12      7      0      0      0      0      0      0      0      0     59      0      0      0      0      0      0    -17      0      0      0      0      0      0      0      0      0      0      0      0      0      0      0      0      0      0      0    -19      0      0      0      0      0    197    147      0      0      0      0      0      0      0      0      0      0      0      0      0      0      0      0      0
      9     15     12     11	    466    170     12     12      3      0      0      0     -8      0      0     16      0      0      0      0      0      0      0      0      0      0      0      0      0      0      0      0      0     48      0      0      0      0      0    -31      0      0      0      0      0      0      0    104      0      0      0      0      0      0      0    163      0      0     44      0      0      0      0      0      0      0      0      0      0
      7     14     13     10	    232    133     11     12      9      0      0      0      0     -1     17      0      0      0     21      0      0      0      0      0      0      0      0      0    -31      0      0      0    -27      0      0      0     22    -11      0      0      0    -42      0      0      0      0      0      0    100      0     78      0     58      0      0      0    108      0      0      0      0     63      0      0      0      2      9      0      0
     10     15     12     11	    226    107     12     12      4      0    129     63      0      0    148      0      0     82     45      0      0      0      0      0      0      0      0    -31      0      0      0      0     67      0      0      0     95      0      0      0    105      0      0      0      0     67      0      0      0      6    -39      0      0      0    -29      0      0      0      0      0    131      0      0      0      0      0      0     25      0
      6     12     10     15	    453     87     11     11      7      0      0      0      0      0      0     12      0      0      0      0      0      0      0      0      0      0      0      0      0      0      0      0      0    111      0      0     94      0      0      0      0      0      0      0     34      0      0      0      0    241      0      0      0      5      0      0      0      0      0      0      0      0     70      0      0     59     -9      0     27
     11     15     13     15	    371    257     12     12      8      0      0      0     52      0      0      0     55      0      0     47      0      0     57      0      0      0      0      0      0      0      0      0      0      0      0      0      0     62      0      0     45      0      0      0      0      0    -18      0     36      0    -20      0     26      0      0      0      0     78      0      0      0      0      0     41      0      0     -4      0      0
     11     15     11     15	    139     80     11     11      4      0      0     78     -7     78      0      0      0      0      0      0      0      0      0    105      0      0      0      0      0      0      0      0      0     86      0     68    -18      0     91      0      0      0      0      0      0     58      0      0      0      0     -9      0     48      0      0      0      0     19      0      0      0     78      0     -5      0      0      0     -4      0
      6     14     14     14	    175     84      6     10      7    -30      0      0      0      0    121      0      0      0      0    -14      0     65      0      0    137      0      0    -27     67      0      0      0      0      0      0     28      0      0      0     55    -23      0      0      0      0      0      0    -24      0     91      0      0      0      0      0      0      0      0      0      0      0      0      0    -28      0      0      0      0      0
      6     13     12     15	    159    105     11     11      1      0      0     59      0      0    126      0      0      0     42      0      0      0      0      0    -17      0     48      0      0    111      0     86      0      0      0      0     36      0      0      0      0      0      0      0      0      0      0      0      0     43      0      0      0      0      0      0      9      0      0      0      0      0      0      0      0      0      0     76      0
      9     15     11     13	    492    238     11     11      8     48      0      0     64      0      0      0      0      0      0      0    -45     44      0      0      0      0      0      0      0      0      0      0      0      0      0     14      0      0      0      0      0      0    -32     35      0      0      0      0      0    133      0      0      0     78     30      0      0     69      0    233      0      0    110      0      0      0      0      0      0
      7     11     10     12	    228     81      9     12      4      0      0      0      0      0    153      0      0     78      0      0      0      0      0    169    -22      0      0      0      0      0      0     68     28      0     14      0     87      0      0      0      0      0      0      0      0      0      0      0     72      0     29      0      0      0      0      0     88      0     91      0      0      0     45      0    -20      0    100      0      0
     10     14     13     11	    294    114     12     12      5      0      0      0    137      0      0      0      0     65     44      0      0      0      0      0      0      0      0     22     95     94      0    -18      0     36      0     87      0      0      0      0      0      0      0     27      0      0      0      0      0      0      0      0      0      0      0    -24      0      0      0      5      0      0      0     24     51      0     -5      0      0
      7     15     14     13	    367     86     12     12      8      0      0      0      0      0      0      0      0      0      0      0    -52     66      0    140      0      0      0    -11      0      0     62      0      0      0      0      0      0      0      0      0      0      0      0      0      0      7     55      0      0    250      0      0      0      0      0      0      0      0      0      0      0      0    -29      0      0      0      0      0      0
     10     10     14     13	    207    127     11     12      6    154      0      0      0      0      0      0      0      0      0      0      0      0    124    123      0      0      0      0      0      0      0     91      0      0      0      0      0      0      0      8      0      0    105     81     95      0      0      6      0      0      0     68      0      0      0      0      0     12      0      0      0      0      0      0      0      0      0      7      0
      6     10     14     14	    227    122     12     12      1      0      0    154      0      0     39      0      0      0      0      0      0      0      0      0      0      0    -31      0      0      0      0      0     55      0      0      0      0      0      8      0     -4      0      0      0      0      0      0      0      0      0      0      0      0      0     29      0      0      0      0      0      0      0      0      0      0      0     -6      0      0
      7     12     14     10	    146     61     11     11      9      0      0     37      0    -26      0      0      0      0      0     28      0      0     59      0     18      0      0      0    105      0     45      0    -23      0      0      0      0      0      0     -4      0     -7      0      0      0      0      0      0     85      0      0      0      0      0      0      0      0     74      0      0      0     73      0      0      0      0      0      0      0
      9     12     13     15	    456    238     12     12      6    -16      0      0      0      0      0      0      0     10      0      0      0      0      0      0      0      0      0    -42      0      0      0      0      0      0      0      0      0      0      0      0     -7      0      0      0      0     71    193      0      0      0      0      0      0      0      0      0      0      0      0      0      0     73      0      0      0      0      0      0      0
      7     10     10     11	    349     90      7      9      3      0      0      0      0    138      0      0      0      0      0      0      0      0      0      0      0      0      0      0      0      0      0      0      0      0    -32      0      0      0    105      0      0      0      0      0      0      0      0      0      0      0      0      0    141     28      0      0      0      0    151      0      0      0      0      0      0      0      0      0      0
     10     15     14     11	    363    251     10     11      5      0      0    240      0      0    -48     79      0    -21     35      0      0      0      0      0      0      0      0      0      0      0      0      0      0      0     35      0     27      0     81      0      0      0      0      0      0      0     45    180     96      0      0      0      0      0     62      0     41    189    -36      0      0     82     37      0      0     91    147      0      0
     12     12     10     13	    191     83     12     12      3      0      0      0      6      0      0      0      0      0      0      0      0      0      0      0      0    -19      0      0      0     34      0      0      0      0      0      0      0      0     95      0      0      0      0      0      0      0      0      0      0      0      0    113      0      0      0     41      0      0      0      0      0      0      0      0      0      0      0    -20     19
     10     11     15     11	    145     53     12     12      3      0      0      0      0      0      0      0      0      0      0      0      0      0      0      0      0      0      0      0     67      0      0     58      0      0      0      0      0      7      0      0      0     71      0      0      0      0     61      0      0      0      0      0      0      0      0     87      0    -14      0      0     -6     83      0      0      0      0      0    108      0
      8     14     12     11	    296    149     12     12      8      0      0      0      0     79      0      0      0      0     41     14      0      0      0      0      0      0      0      0      0      0    -18      0      0      0      0      0      0     55      0      0      0    193      0     45      0     61      0      0      0      0      0    -46      0      0      0    132      0    208      0      0      0      0     69      0      0      0      0      0      0
      6     11     10     11	    381     65     10     12      7      0      0    160      0      0      0      0      0     51      0      0      0      0      0    -25      0      0    104      0      0      0      0      0    -24      0      0      0      0      0      6      0      0      0      0    180      0      0      0      0      0      0      0      0      0     83      0     58    188      0     86      0      0      0      0      0      0      0      0      0      0
     10     13     12     12	    182    124     10     11      4      0      0     57      0      0    -12      0      0     18     39    -20      0      0      0     21      0      0      0    100      0      0     36      0      0      0      0     72      0      0      0      0     85      0      0     96      0      0      0      0      0     -1      0      0      0      0      0      0      0      0      0    138      0      0     -2    -26      0      0    -28      0      0
     12     10     13     14	    388    213     12     12      7    -20      0     37      0      0      0      0      0      0      0      0      0      0    231      0      0      0      0      0      6    241      0      0     91     43    133      0      0    250      0      0      0      0      0      0      0      0      0      0     -1      0      0      0      0      0      0      0      0     62      0      0      0    179      0      0      0      0      0      0    -11
      7     10     10     10	    275    112     11     11      5      0      0    200    214    -11      0      0      0      0      0      0      0      0      0      0     53    197      0     78    -39      0    -20     -9      0      0      0     29      0      0      0      0      0      0      0      0      0      0      0      0      0      0      0    175     46      0      0     80      0      0      0      0      0      0      0      0      0      0      0      0      0
     11     13     13     10	    416    143     12     12      6      0      0      0      0      0    211      0      0      0      0      0      0      0      0      0      0    147      0      0      0      0      0      0      0      0      0      0      0      0     68      0      0      0      0      0    113      0    -46      0      0      0    175      0      0      0      0      0      0      0      0      0    261      0    -14      0      0      0      0      0      0
      7     14     11     13	    220    137      9      9      2      0      0    147      0      0      0     54      0      0     35      0      0      0      0      0    158      0      0     58      0      0     26     48      0      0      0      0      0      0      0      0      0      0    141      0      0      0      0      0      0      0     46      0      0      0      0      0      0      0      0      0      0      0    102     58      0      0      0    113      0
     10     10     15     13	    245    148     10     10      8      0      0      0      0      0      0     93      0      0     -1      0     84      0    163      0      0      0      0      0      0      5      0      0      0      0     78      0      0      0      0      0      0      0     28      0      0      0      0     83      0      0      0      0      0      0      0      0      0      0      0      0      0      0      0    104      0      0      0      0      0
      6     11     14     14	    233    128      8     11      2      0      0    101      0      0      0     62      0      0      0      0      0      0      0      0      0      0      0      0    -29      0      0      0      0      0     30      0      0      0      0     29      0      0      0     62      0      0      0      0      0      0      0      0      0      0      0      0      0      0    155     34      0      0      0      0      0    134      0      0     45
     12     13     15     11	    204    102     12     12      7      0      0      0     62      0      0      0      0      0      0    120      0      0      0    -13      0      0    163      0      0      0      0      0      0      0      0      0    -24      0      0      0      0      0      0      0     41     87    132     58      0      0     80      0      0      0      0      0     89      0      0      0      0    -21      0    108      0      0      0      0      0
      6     12     11     12	    434    141     11     11      2    142      0      0      0     76      0      0      0      0      0      0      0      0      0      0      0      0      0    108      0      0      0      0      0      9      0     88      0      0      0      0      0      0      0     41      0      0      0    188      0      0      0      0      0      0      0     89      0      0      0      0    136    101     -1      0     42      0    121    226      0
      9     10     13     10	    427    108      9     12      8      0     60      0      0      0      0      0      0      0      0      0    104      0      0      0      0      0      0      0      0      0     78     19      0      0     69      0      0      0     12      0     74      0      0    189      0    -14    208      0      0     62      0      0      0      0      0      0      0      0      0    177      0      0      0      0      0    198      0      0      0
     12     14     12     11	    210     88     12     12      7      0      0     17      0     21      0      0      0      0      0      0      0     26    114      0    -16      0     44      0      0      0      0      0      0      0      0     91      0      0      0      0      0      0    151    -36      0      0      0     86      0      0      0      0      0      0    155      0      0      0      0     34      0      0      0      0      0      0      0     74      0
      6     15     10     13	    326    129     11     12      4      0    192      0    239      0      0      0      0    -21     18      0      0     31      0      0      0      0      0      0      0      0      0      0      0      0    233      0      5      0      0      0      0      0      0      0      0      0      0      0    138      0      0      0      0      0     34      0      0    177     34      0    -29      0      0      0      0      0      0      0      0
     12     14     13     13	    408     96     12     12     10     43      0      0      0      0      0      0      0      0      0      0      0      0      0      0      0      0      0      0    131      0      0      0      0      0      0      0      0      0      0      0      0      0      0      0      0     -6      0      0      0      0      0    261      0      0      0      0    136      0      0    -29      0      0      0      0      0      0     81      0      0
      7     11     15     13	    232    133     10     12      2      0    -38      0      0      0      0      0      0      0      0      0     81      0      0      0    173      0      0     63      0      0      0     78      0      0      0      0      0      0      0      0     73     73      0     82      0     83      0      0      0    179      0      0      0      0      0    -21    101      0      0      0      0      0      0      0      0      0      0     74     16
     11     14     12     11	    147     69     11     12      3      0      0      0      0    113      0      0      0      0     18     76      0      0      0      1      0      0      0      0      0     70      0      0      0      0    110     45      0    -29      0      0      0      0      0     37      0      0     69      0     -2      0      0    -14    102      0      0      0     -1      0      0      0      0      0      0      0      0      0      0      0      0
     12     10     13     12	    142     78     12     12      8      0     82      0      0     46      0      0      0      0      0    106      0     79      0      0     -4      0      0      0      0      0     41     -5    -28      0      0      0     24      0      0      0      0      0      0      0      0      0      0      0    -26      0      0      0     58    104      0    108      0      0      0      0      0      0      0      0      0      0      0      0     29
     11     10     13     11	    427    259     12     12      8      0      0    341      0      0      0      0      0      0      0      0      0      0      0      0      0      0      0      0      0      0      0      0      0      0      0    -20     51      0      0      0      0      0      0      0      0      0      0      0      0      0      0      0      0      0      0      0     42      0      0      0      0      0      0      0      0      0      0    220      0
      8     10     12     11	    294     59      9     10     10      0      0      0      0      0      0     26      0      0      0      0      0      0      4      0      0      0      0      2      0     59      0      0      0      0      0      0      0      0      0      0      0      0      0     91      0      0      0      0      0      0      0      0      0      0    134      0      0    198      0      0      0      0      0      0      0      0      0      0      0
      6     11     12     13	    209    143     12     12      4     44      2      0      0      0      0      0      0      0      0      0      0    130      0      0      0      0      0      9      0     -9     -4      0      0      0      0    100     -5      0      0     -6      0      0      0    147      0      0      0      0    -28      0      0      0      0      0      0      0    121      0      0      0     81      0      0      0      0      0      0      0      0
      9     15     10     12	    309    128     10     11      9    138      0      0      0      0      0     72      0      0      6      0      0      0    181      0      0      0      0      0     25      0      0     -4      0     76      0      0      0      0      7      0      0      0      0      0    -20    108      0      0      0      0      0      0    113      0      0      0    226      0     74      0      0     74      0      0    220      0      0      0      0
     12     12     12     14	    285    191     12     12      8      0      0     67     23      0      0     53     73      0      0      0      0      0      0      0      0      0      0      0      0     27      0      0      0      0      0      0      0      0      0      0      0      0      0      0     19      0      0      0      0    -11      0      0      0      0     45      0      0      0      0      0      0     16      0     29      0      0      0      0      0